c File: flat50_3_0.col
c
c SOURCE: Joseph Culberson (joe@cs.ualberta.ca)
c DESCRIPTION: Quasi-random coloring problem
c              generated with flatness = 0
c                             probability = 0.139
c                             known coloring = 3
c                             random seed = 1408
c              Creation Date:  Tue Jun  9 12:08:37 1998
c Maximum degree = 8 Minimum degree = 0
c p edge 50 115
c cnf created by edge2cnf
p cnf 150 545
-1 -2 0
-1 -3 0
-2 -3 0
1 2 3 0
-4 -5 0
-4 -6 0
-5 -6 0
4 5 6 0
-7 -8 0
-7 -9 0
-8 -9 0
7 8 9 0
-10 -11 0
-10 -12 0
-11 -12 0
10 11 12 0
-13 -14 0
-13 -15 0
-14 -15 0
13 14 15 0
-16 -17 0
-16 -18 0
-17 -18 0
16 17 18 0
-19 -20 0
-19 -21 0
-20 -21 0
19 20 21 0
-22 -23 0
-22 -24 0
-23 -24 0
22 23 24 0
-25 -26 0
-25 -27 0
-26 -27 0
25 26 27 0
-28 -29 0
-28 -30 0
-29 -30 0
28 29 30 0
-31 -32 0
-31 -33 0
-32 -33 0
31 32 33 0
-34 -35 0
-34 -36 0
-35 -36 0
34 35 36 0
-37 -38 0
-37 -39 0
-38 -39 0
37 38 39 0
-40 -41 0
-40 -42 0
-41 -42 0
40 41 42 0
-43 -44 0
-43 -45 0
-44 -45 0
43 44 45 0
-46 -47 0
-46 -48 0
-47 -48 0
46 47 48 0
-49 -50 0
-49 -51 0
-50 -51 0
49 50 51 0
-52 -53 0
-52 -54 0
-53 -54 0
52 53 54 0
-55 -56 0
-55 -57 0
-56 -57 0
55 56 57 0
-58 -59 0
-58 -60 0
-59 -60 0
58 59 60 0
-61 -62 0
-61 -63 0
-62 -63 0
61 62 63 0
-64 -65 0
-64 -66 0
-65 -66 0
64 65 66 0
-67 -68 0
-67 -69 0
-68 -69 0
67 68 69 0
-70 -71 0
-70 -72 0
-71 -72 0
70 71 72 0
-73 -74 0
-73 -75 0
-74 -75 0
73 74 75 0
-76 -77 0
-76 -78 0
-77 -78 0
76 77 78 0
-79 -80 0
-79 -81 0
-80 -81 0
79 80 81 0
-82 -83 0
-82 -84 0
-83 -84 0
82 83 84 0
-85 -86 0
-85 -87 0
-86 -87 0
85 86 87 0
-88 -89 0
-88 -90 0
-89 -90 0
88 89 90 0
-91 -92 0
-91 -93 0
-92 -93 0
91 92 93 0
-94 -95 0
-94 -96 0
-95 -96 0
94 95 96 0
-97 -98 0
-97 -99 0
-98 -99 0
97 98 99 0
-100 -101 0
-100 -102 0
-101 -102 0
100 101 102 0
-103 -104 0
-103 -105 0
-104 -105 0
103 104 105 0
-106 -107 0
-106 -108 0
-107 -108 0
106 107 108 0
-109 -110 0
-109 -111 0
-110 -111 0
109 110 111 0
-112 -113 0
-112 -114 0
-113 -114 0
112 113 114 0
-115 -116 0
-115 -117 0
-116 -117 0
115 116 117 0
-118 -119 0
-118 -120 0
-119 -120 0
118 119 120 0
-121 -122 0
-121 -123 0
-122 -123 0
121 122 123 0
-124 -125 0
-124 -126 0
-125 -126 0
124 125 126 0
-127 -128 0
-127 -129 0
-128 -129 0
127 128 129 0
-130 -131 0
-130 -132 0
-131 -132 0
130 131 132 0
-133 -134 0
-133 -135 0
-134 -135 0
133 134 135 0
-136 -137 0
-136 -138 0
-137 -138 0
136 137 138 0
-139 -140 0
-139 -141 0
-140 -141 0
139 140 141 0
-142 -143 0
-142 -144 0
-143 -144 0
142 143 144 0
-145 -146 0
-145 -147 0
-146 -147 0
145 146 147 0
-148 -149 0
-148 -150 0
-149 -150 0
148 149 150 0
-73 -1 0
-74 -2 0
-75 -3 0
-94 -1 0
-95 -2 0
-96 -3 0
-100 -1 0
-101 -2 0
-102 -3 0
-106 -1 0
-107 -2 0
-108 -3 0
-148 -1 0
-149 -2 0
-150 -3 0
-91 -4 0
-92 -5 0
-93 -6 0
-97 -4 0
-98 -5 0
-99 -6 0
-121 -4 0
-122 -5 0
-123 -6 0
-73 -7 0
-74 -8 0
-75 -9 0
-82 -7 0
-83 -8 0
-84 -9 0
-85 -7 0
-86 -8 0
-87 -9 0
-91 -7 0
-92 -8 0
-93 -9 0
-124 -7 0
-125 -8 0
-126 -9 0
-136 -7 0
-137 -8 0
-138 -9 0
-61 -10 0
-62 -11 0
-63 -12 0
-67 -10 0
-68 -11 0
-69 -12 0
-76 -10 0
-77 -11 0
-78 -12 0
-103 -10 0
-104 -11 0
-105 -12 0
-142 -10 0
-143 -11 0
-144 -12 0
-67 -13 0
-68 -14 0
-69 -15 0
-97 -13 0
-98 -14 0
-99 -15 0
-127 -13 0
-128 -14 0
-129 -15 0
-136 -13 0
-137 -14 0
-138 -15 0
-139 -13 0
-140 -14 0
-141 -15 0
-73 -16 0
-74 -17 0
-75 -18 0
-136 -16 0
-137 -17 0
-138 -18 0
-55 -19 0
-56 -20 0
-57 -21 0
-58 -19 0
-59 -20 0
-60 -21 0
-70 -19 0
-71 -20 0
-72 -21 0
-100 -19 0
-101 -20 0
-102 -21 0
-115 -19 0
-116 -20 0
-117 -21 0
-106 -22 0
-107 -23 0
-108 -24 0
-130 -22 0
-131 -23 0
-132 -24 0
-55 -25 0
-56 -26 0
-57 -27 0
-118 -25 0
-119 -26 0
-120 -27 0
-127 -25 0
-128 -26 0
-129 -27 0
-139 -25 0
-140 -26 0
-141 -27 0
-64 -28 0
-65 -29 0
-66 -30 0
-70 -28 0
-71 -29 0
-72 -30 0
-85 -28 0
-86 -29 0
-87 -30 0
-148 -28 0
-149 -29 0
-150 -30 0
-55 -31 0
-56 -32 0
-57 -33 0
-70 -31 0
-71 -32 0
-72 -33 0
-91 -31 0
-92 -32 0
-93 -33 0
-103 -31 0
-104 -32 0
-105 -33 0
-142 -31 0
-143 -32 0
-144 -33 0
-109 -34 0
-110 -35 0
-111 -36 0
-124 -34 0
-125 -35 0
-126 -36 0
-52 -37 0
-53 -38 0
-54 -39 0
-55 -37 0
-56 -38 0
-57 -39 0
-67 -37 0
-68 -38 0
-69 -39 0
-91 -37 0
-92 -38 0
-93 -39 0
-127 -37 0
-128 -38 0
-129 -39 0
-136 -37 0
-137 -38 0
-138 -39 0
-139 -37 0
-140 -38 0
-141 -39 0
-148 -37 0
-149 -38 0
-150 -39 0
-61 -40 0
-62 -41 0
-63 -42 0
-79 -40 0
-80 -41 0
-81 -42 0
-106 -40 0
-107 -41 0
-108 -42 0
-121 -40 0
-122 -41 0
-123 -42 0
-130 -40 0
-131 -41 0
-132 -42 0
-61 -43 0
-62 -44 0
-63 -45 0
-76 -43 0
-77 -44 0
-78 -45 0
-115 -43 0
-116 -44 0
-117 -45 0
-124 -43 0
-125 -44 0
-126 -45 0
-70 -46 0
-71 -47 0
-72 -48 0
-76 -46 0
-77 -47 0
-78 -48 0
-121 -46 0
-122 -47 0
-123 -48 0
-130 -46 0
-131 -47 0
-132 -48 0
-67 -49 0
-68 -50 0
-69 -51 0
-76 -49 0
-77 -50 0
-78 -51 0
-94 -49 0
-95 -50 0
-96 -51 0
-100 -49 0
-101 -50 0
-102 -51 0
-130 -49 0
-131 -50 0
-132 -51 0
-139 -49 0
-140 -50 0
-141 -51 0
-142 -49 0
-143 -50 0
-144 -51 0
-148 -49 0
-149 -50 0
-150 -51 0
-106 -52 0
-107 -53 0
-108 -54 0
-121 -52 0
-122 -53 0
-123 -54 0
-142 -55 0
-143 -56 0
-144 -57 0
-103 -58 0
-104 -59 0
-105 -60 0
-148 -58 0
-149 -59 0
-150 -60 0
-112 -61 0
-113 -62 0
-114 -63 0
-121 -61 0
-122 -62 0
-123 -63 0
-127 -61 0
-128 -62 0
-129 -63 0
-142 -61 0
-143 -62 0
-144 -63 0
-109 -64 0
-110 -65 0
-111 -66 0
-133 -64 0
-134 -65 0
-135 -66 0
-136 -64 0
-137 -65 0
-138 -66 0
-106 -67 0
-107 -68 0
-108 -69 0
-130 -67 0
-131 -68 0
-132 -69 0
-133 -70 0
-134 -71 0
-135 -72 0
-109 -73 0
-110 -74 0
-111 -75 0
-136 -73 0
-137 -74 0
-138 -75 0
-148 -73 0
-149 -74 0
-150 -75 0
-106 -76 0
-107 -77 0
-108 -78 0
-109 -76 0
-110 -77 0
-111 -78 0
-103 -79 0
-104 -80 0
-105 -81 0
-106 -79 0
-107 -80 0
-108 -81 0
-130 -79 0
-131 -80 0
-132 -81 0
-139 -79 0
-140 -80 0
-141 -81 0
-118 -82 0
-119 -83 0
-120 -84 0
-121 -82 0
-122 -83 0
-123 -84 0
-133 -82 0
-134 -83 0
-135 -84 0
-112 -85 0
-113 -86 0
-114 -87 0
-148 -85 0
-149 -86 0
-150 -87 0
-118 -88 0
-119 -89 0
-120 -90 0
-130 -88 0
-131 -89 0
-132 -90 0
-139 -88 0
-140 -89 0
-141 -90 0
-124 -91 0
-125 -92 0
-126 -93 0
-133 -91 0
-134 -92 0
-135 -93 0
-109 -97 0
-110 -98 0
-111 -99 0
-121 -97 0
-122 -98 0
-123 -99 0
-136 -100 0
-137 -101 0
-138 -102 0
-148 -100 0
-149 -101 0
-150 -102 0
